21
15
17 20 13 5 11
8 17 20 0 10 18 3 5 7 13 1 14 15
5 15
20 4 7 18 12 8 11 1 9
13 19 14 17 9 6 10
9 11 16 6 8 19 4 5 20 7 13 3 10 17
20 14 17 13 6 11 15 5 7 19 0 10 8 3 12 16 4 1 2 9
3 13 12 17 7 14 5 9 1 11 0 20 16 19 18 2 10
19 2 6 7
1 3 17 7 16 9 20 12 4 19 8 5 18 2 14 0 10
20 0 9 18 5 8 1 14 16 7 13 15 12 3 4 17 11 2 19 6 10
13 14 6 3 2 17 0 11 5 19 16 18 1 20 8 7 15 9 4 10 12
19 8 4 2 0 6 11 16 7 18 1 20 10 15
1 6 5 15 7 4 18 20 17 3 9 10
5 8 1 17 10 0 16 19 20 18 13 12
